language ESSENCE' 1.0

letting n_courses be 142
letting n_periods be 23
letting prerequisite_RelationAsSet_Explicit_1 be
        [1, 1, 1, 1, 1, 1, 2, 2, 2, 2, 2, 2, 2, 3, 3, 3, 3, 3, 3, 3, 3, 3, 3, 4, 4, 4, 4, 4, 4, 4, 4, 4, 4, 5, 5, 5, 5,
         6, 6, 6, 6, 7, 7, 7, 7, 7, 8, 8, 8, 8, 8, 8, 8, 8, 8, 8, 8, 9, 9, 9, 9, 9, 9, 10, 10, 10, 10, 10, 10, 11, 11,
         11, 11, 11, 11, 11, 11, 11, 12, 12, 12, 13, 13, 13, 13, 13, 13, 13, 13, 14, 14, 14, 14, 14, 14, 14, 14, 14, 14,
         14, 15, 15, 15, 15, 15, 15, 15, 15, 15, 15, 16, 16, 16, 16, 16, 16, 16, 16, 16, 17, 17, 17, 18, 18, 18, 18, 18,
         18, 18, 19, 19, 19, 19, 19, 19, 19, 19, 20, 20, 20, 20, 20, 20, 20, 20, 20, 20, 20, 20, 21, 21, 21, 21, 21, 21,
         22, 22, 22, 22, 22, 22, 22, 23, 23, 23, 23, 23, 23, 23, 24, 24, 24, 24, 24, 25, 25, 25, 26, 26, 26, 26, 26, 26,
         26, 26, 26, 26, 26, 26, 27, 27, 27, 27, 27, 27, 27, 27, 27, 28, 28, 28, 29, 29, 29, 29, 29, 29, 29, 29, 30, 30,
         30, 30, 30, 30, 30, 30, 30, 30, 30, 31, 31, 31, 31, 31, 31, 31, 31, 31, 31, 32, 32, 32, 32, 32, 32, 33, 33, 33,
         33, 33, 34, 34, 34, 35, 35, 36, 36, 37, 38, 38, 38, 38, 38, 39, 39, 40, 40, 41, 41, 42, 42, 42, 42, 42, 43, 43,
         43, 43, 43, 43, 44, 45, 45, 45, 46, 46, 46, 46, 47, 47, 47, 47, 47, 48, 49, 50, 50, 51, 51, 52, 52, 53, 53, 53,
         54, 54, 54, 54, 54, 54, 55, 55, 55, 55, 56, 56, 56, 57, 57, 57, 57, 58, 58, 58, 58, 58, 59, 59, 59, 59, 60, 60,
         61, 61, 62, 62, 62, 62, 63, 63, 63, 64, 64, 64, 65, 65, 65, 65, 66, 66, 66, 66, 67, 67, 67, 67, 67, 67, 68, 68,
         68, 68, 68, 69, 69, 70, 71, 72, 73, 73, 73, 73, 73, 74, 75, 75, 75, 75, 75, 75, 76, 76, 76, 76, 76, 76, 77, 77,
         77, 77, 77, 77, 77, 78, 78, 79, 79, 79, 79, 80, 80, 80, 80, 81, 81, 81, 81, 82, 82, 82, 82, 82, 83, 83, 83, 83,
         83, 84, 84, 84, 85, 85, 85, 85, 85, 85, 85, 86, 86, 86, 86, 87, 87, 87, 87, 87, 87, 88, 88, 89, 89, 89, 89, 89,
         89, 89, 90, 91, 92, 92, 92, 93, 93, 93, 93, 93, 93, 94, 94, 94, 94, 95, 95, 95, 96, 97, 97, 97, 97, 97, 97, 97,
         97, 98, 98, 98, 98, 98, 99, 99, 99;
             int(1..472)]
letting prerequisite_RelationAsSet_Explicit_2 be
        [34, 45, 57, 80, 87, 91, 41, 61, 77, 81, 84, 88, 95, 40, 42, 43, 48, 54, 56, 62, 69, 72, 79, 36, 42, 44, 45, 57,
         63, 67, 73, 84, 90, 37, 51, 79, 83, 55, 65, 76, 99, 43, 44, 84, 86, 89, 33, 36, 41, 43, 60, 64, 68, 70, 87, 89,
         93, 45, 59, 69, 79, 89, 94, 34, 53, 57, 63, 64, 71, 33, 34, 35, 38, 51, 57, 68, 91, 93, 48, 81, 93, 33, 37, 57,
         69, 73, 81, 86, 92, 35, 42, 43, 47, 53, 56, 87, 88, 90, 97, 98, 33, 37, 40, 62, 65, 67, 75, 82, 88, 92, 34, 36,
         41, 59, 63, 72, 75, 81, 87, 39, 78, 94, 33, 53, 57, 72, 74, 76, 95, 34, 35, 39, 52, 55, 57, 83, 86, 45, 49, 50,
         51, 53, 56, 61, 66, 76, 80, 92, 94, 70, 71, 89, 96, 97, 99, 33, 38, 41, 47, 58, 86, 99, 46, 54, 62, 69, 78, 80,
         94, 45, 53, 60, 69, 75, 56, 58, 94, 37, 48, 49, 52, 65, 67, 73, 74, 75, 79, 93, 98, 46, 57, 64, 69, 71, 84, 92,
         95, 97, 39, 55, 81, 34, 46, 61, 65, 70, 77, 78, 88, 36, 48, 49, 51, 61, 66, 71, 74, 85, 89, 97, 39, 40, 41, 44,
         51, 76, 85, 89, 92, 99, 45, 49, 58, 61, 75, 87, 103, 118, 122, 126, 134, 114, 123, 141, 114, 138, 102, 124,
         130, 101, 108, 110, 111, 141, 135, 142, 116, 125, 106, 133, 104, 125, 126, 131, 135, 103, 106, 126, 132, 138,
         140, 122, 128, 134, 141, 103, 115, 133, 142, 102, 108, 117, 137, 139, 120, 122, 101, 113, 129, 136, 101, 128,
         106, 128, 133, 100, 111, 116, 133, 138, 140, 107, 110, 135, 140, 119, 129, 133, 110, 114, 123, 137, 101, 109,
         111, 131, 132, 100, 102, 112, 135, 101, 118, 101, 119, 100, 102, 104, 142, 104, 122, 139, 102, 109, 112, 113,
         119, 128, 141, 109, 135, 137, 140, 115, 117, 118, 129, 130, 137, 100, 112, 115, 121, 142, 122, 125, 123, 115,
         141, 100, 102, 110, 130, 134, 113, 102, 103, 117, 129, 138, 139, 109, 124, 125, 129, 130, 131, 100, 102, 104,
         111, 121, 127, 136, 111, 142, 102, 103, 105, 118, 105, 113, 120, 136, 107, 109, 119, 137, 105, 126, 131, 133,
         135, 101, 104, 112, 127, 131, 108, 114, 124, 102, 119, 122, 125, 128, 133, 138, 111, 120, 136, 139, 104, 114,
         115, 126, 130, 139, 128, 129, 101, 118, 122, 123, 124, 136, 142, 128, 127, 101, 112, 140, 100, 103, 126, 129,
         139, 141, 119, 132, 137, 139, 101, 141, 142, 127, 106, 116, 120, 126, 134, 136, 138, 141, 107, 111, 115, 131,
         139, 101, 107, 112;
             int(1..472)]
letting course_load_Function1D be
        [6, 5, 8, 4, 5, 4, 7, 6, 6, 6, 8, 6, 4, 7, 4, 5, 6, 6, 6, 5, 8, 4, 7, 4, 6, 8, 5, 6, 7, 6, 7, 7, 6, 6, 7, 5, 6,
         5, 5, 8, 5, 7, 5, 5, 4, 6, 5, 5, 8, 8, 5, 6, 6, 5, 5, 5, 7, 7, 5, 4, 6, 4, 8, 5, 7, 5, 6, 6, 7, 6, 7, 4, 7, 4,
         5, 4, 7, 4, 5, 4, 7, 4, 4, 7, 4, 7, 6, 8, 5, 6, 5, 8, 6, 6, 8, 7, 8, 7, 7, 7, 8, 6, 7, 5, 5, 5, 7, 6, 5, 8, 4,
         4, 7, 4, 8, 7, 6, 4, 8, 7, 6, 6, 6, 4, 5, 5, 6, 4, 6, 6, 4, 5, 5, 8, 4, 6, 4, 4, 5, 4, 5, 5;
             int(1..142)]
letting load_per_period_ub be 36
letting load_per_period_lb be 5
letting courses_per_period_ub be 9
letting courses_per_period_lb be 3
letting fin1 be 472
letting fin2 be 142
letting fin3 be 8
